p cnf 390 1363
-86 -15 87 0 
-86 15 112 0 
-87 -88 99 0 
-87 88 119 0 
-88 89 0 
-88 97 0 
-89 90 0 
-89 95 0 
-90 91 0 
-90 93 0 
-91 -92 0 
-93 -94 0 
-95 -96 0 
-97 -98 0 
-99 -100 108 0 
-99 100 112 0 
-100 101 0 
-100 106 0 
-101 102 0 
-101 104 0 
-102 103 0 
-104 105 0 
-1 10 0 
1 29 0 
-106 107 0 
-108 109 0 
-108 84 0 
-109 110 0 
-109 82 0 
-110 111 0 
-110 78 0 
-111 81 0 
-112 113 0 
-112 118 0 
-113 114 0 
-113 117 0 
-114 115 0 
-114 116 0 
-1 2 6 0 
-115 -92 79 0 
-115 -79 92 0 
-116 -94 81 0 
-116 -81 94 0 
-117 -96 83 0 
-117 -83 96 0 
-118 -85 98 0 
-118 -98 85 0 
-119 -120 124 0 
-119 120 129 0 
-120 97 0 
-120 121 0 
-121 95 0 
-121 122 0 
-122 91 0 
-122 123 0 
-123 94 0 
-124 -125 126 0 
-124 125 112 0 
-2 -3 0 
-125 -105 0 
-126 127 0 
-126 84 0 
-127 128 0 
-127 77 0 
-128 83 0 
-129 -130 133 0 
-129 130 140 0 
-130 97 0 
-130 131 0 
-131 90 0 
-131 132 0 
-132 96 0 
-133 -134 136 0 
-133 134 112 0 
-134 101 0 
-134 135 0 
-3 -4 5 0 
-3 -5 4 0 
-135 -107 0 
-136 137 0 
-136 84 0 
-137 138 0 
-137 82 0 
-138 111 0 
-138 139 0 
-139 79 0 
-140 -141 145 0 
-140 141 149 0 
-141 97 0 
-141 142 0 
-142 95 0 
-142 143 0 
-143 123 0 
-143 144 0 
-144 92 0 
-145 -125 146 0 
-145 125 112 0 
-146 147 0 
-146 84 0 
-147 148 0 
-147 82 0 
-148 139 0 
-148 80 0 
-149 -150 153 0 
-149 150 112 0 
-150 97 0 
-150 151 0 
-151 95 0 
-151 152 0 
-152 93 0 
-152 144 0 
-153 -154 75 0 
-153 154 112 0 
-154 30 0 
-1 155 0 
1 179 0 
-155 -11 156 0 
-155 11 167 0 
-156 157 0 
-156 165 0 
-157 158 0 
-157 163 0 
-158 159 0 
-158 161 0 
-159 -160 0 
-161 -162 0 
-6 -7 0 
-163 -164 0 
-165 -166 0 
-167 -15 168 0 
-167 15 179 0 
-168 -18 169 0 
-168 18 173 0 
-169 165 0 
-169 170 0 
-170 163 0 
-170 171 0 
-171 161 0 
-171 172 0 
-172 160 0 
-7 -8 9 0 
-7 -9 8 0 
-173 -32 174 0 
-173 32 186 0 
-174 -37 175 0 
-174 37 179 0 
-175 165 0 
-175 176 0 
-176 163 0 
-176 177 0 
-177 159 0 
-177 178 0 
-178 162 0 
-179 180 0 
-179 185 0 
-180 181 0 
-180 184 0 
-181 182 0 
-181 183 0 
-182 -160 22 0 
-182 -22 160 0 
-183 -162 24 0 
-183 -24 162 0 
-184 -164 26 0 
-184 -26 164 0 
-185 -166 28 0 
-185 -28 166 0 
-186 -40 187 0 
-186 40 190 0 
-187 165 0 
-187 188 0 
-188 163 0 
-188 189 0 
-189 172 0 
-189 178 0 
-190 -45 191 0 
-190 45 194 0 
-191 165 0 
-191 192 0 
-192 158 0 
-192 193 0 
-193 164 0 
-194 -49 195 0 
-194 49 200 0 
-195 -196 198 0 
-195 196 179 0 
-196 197 0 
-198 165 0 
-198 199 0 
-199 171 0 
-199 193 0 
-200 -53 201 0 
-200 53 203 0 
-201 176 0 
-201 202 0 
-202 166 0 
-10 -11 12 0 
-10 11 14 0 
-203 -56 204 0 
-203 56 207 0 
-204 -71 205 0 
-204 71 179 0 
-205 165 0 
-205 206 0 
-206 177 0 
-206 193 0 
-207 -59 208 0 
-207 59 210 0 
-208 165 0 
-208 209 0 
-209 189 0 
-209 193 0 
-210 -62 211 0 
-210 62 212 0 
-211 157 0 
-211 202 0 
-212 -65 213 0 
-212 65 215 0 
-11 8 0 
-213 -196 214 0 
-213 196 179 0 
-214 170 0 
-214 202 0 
-215 -67 216 0 
-215 67 217 0 
-216 188 0 
-216 202 0 
-217 -69 218 0 
-217 69 179 0 
-218 -71 156 0 
-218 71 179 0 
-1 219 0 
1 224 0 
-219 -11 220 0 
-219 11 222 0 
-220 -221 0 
-222 -15 223 0 
-222 15 224 0 
-223 -88 224 0 
-223 88 225 0 
-224 -221 38 0 
-224 -38 221 0 
-225 -120 224 0 
-225 120 226 0 
-226 -130 224 0 
-226 130 227 0 
-227 -141 228 0 
-227 141 229 0 
-228 221 0 
-229 -150 220 0 
-229 150 224 0 
-1 230 0 
1 235 0 
-230 -11 231 0 
-230 11 233 0 
-12 -13 0 
-231 -232 0 
-233 -15 234 0 
-233 15 235 0 
-234 -18 235 0 
-234 18 237 0 
-235 -232 236 0 
-235 -236 232 0 
-237 -32 235 0 
-237 32 238 0 
-238 -40 235 0 
-238 40 239 0 
-239 -45 235 0 
-239 45 240 0 
-240 -49 235 0 
-240 49 241 0 
-241 -53 235 0 
-241 53 242 0 
-242 -56 235 0 
-242 56 243 0 
-243 -59 235 0 
-243 59 244 0 
-244 -62 235 0 
-244 62 245 0 
-245 -65 235 0 
-245 65 246 0 
-246 -67 247 0 
-246 67 231 0 
-247 232 0 
-1 248 0 
1 253 0 
-248 -11 249 0 
-248 11 251 0 
-249 -250 0 
-251 -15 252 0 
-251 15 253 0 
-252 -18 253 0 
-252 18 255 0 
-253 -250 254 0 
-253 -254 250 0 
-255 -32 253 0 
-255 32 256 0 
-256 -40 253 0 
-256 40 257 0 
-257 -45 253 0 
-257 45 258 0 
-258 -49 253 0 
-258 49 259 0 
-14 -15 17 0 
-14 15 29 0 
-259 -53 260 0 
-259 53 261 0 
-260 250 0 
-261 -56 249 0 
-261 56 262 0 
-262 -59 253 0 
-262 59 263 0 
-263 -62 253 0 
-263 62 264 0 
-264 -65 253 0 
-264 65 265 0 
-265 -67 253 0 
-265 67 266 0 
-266 -69 253 0 
-266 69 249 0 
-15 2 0 
-15 16 0 
-221 267 0 
-267 221 0 
-1 268 0 
1 273 0 
-268 -11 269 0 
-268 11 271 0 
-269 -270 0 
-271 -15 272 0 
-271 15 273 0 
-272 -18 273 0 
-272 18 275 0 
-16 4 0 
-273 -270 274 0 
-273 -274 270 0 
-275 -32 273 0 
-275 32 276 0 
-276 -40 273 0 
-276 40 277 0 
-277 -45 273 0 
-277 45 278 0 
-278 -49 273 0 
-278 49 279 0 
-279 -53 273 0 
-279 53 280 0 
-280 -56 273 0 
-280 56 281 0 
-281 -59 273 0 
-281 59 282 0 
-282 -62 283 0 
-282 62 284 0 
-17 -18 29 0 
-17 18 31 0 
-283 270 0 
-284 -65 273 0 
-284 65 285 0 
-285 -67 273 0 
-285 67 286 0 
-286 -69 287 0 
-286 69 269 0 
-287 -71 269 0 
-287 71 273 0 
-1 288 0 
1 293 0 
-288 -11 289 0 
-288 11 291 0 
-289 -290 0 
-18 19 0 
-18 27 0 
-291 -15 292 0 
-291 15 293 0 
-292 -18 293 0 
-292 18 295 0 
-293 -290 294 0 
-293 -294 290 0 
-295 -32 296 0 
-295 32 298 0 
-296 -37 297 0 
-296 37 293 0 
-297 290 0 
-298 -40 289 0 
-298 40 299 0 
-299 -45 293 0 
-299 45 300 0 
-300 -49 293 0 
-300 49 301 0 
-19 20 0 
-19 25 0 
-301 -53 293 0 
-301 53 302 0 
-302 -56 303 0 
-302 56 304 0 
-303 -71 297 0 
-303 71 293 0 
-304 -59 289 0 
-304 59 305 0 
-305 -62 293 0 
-305 62 306 0 
-306 -65 293 0 
-306 65 307 0 
-307 -67 293 0 
-307 67 308 0 
-308 -69 293 0 
-308 69 289 0 
-1 309 0 
1 317 0 
-20 21 0 
-20 23 0 
-309 -11 310 0 
-309 11 312 0 
-310 -311 0 
-312 -15 313 0 
-312 15 317 0 
-313 -18 310 0 
-313 18 314 0 
-314 -32 315 0 
-314 32 319 0 
-315 -37 316 0 
-315 37 317 0 
-316 311 0 
-317 -311 318 0 
-317 -318 311 0 
-21 -22 0 
-319 -40 317 0 
-319 40 320 0 
-320 -45 317 0 
-320 45 321 0 
-321 -49 317 0 
-321 49 322 0 
-322 -53 317 0 
-322 53 323 0 
-323 -56 317 0 
-323 56 324 0 
-324 -59 317 0 
-324 59 325 0 
-325 -62 317 0 
-325 62 326 0 
-326 -65 317 0 
-326 65 327 0 
-327 -67 317 0 
-327 67 328 0 
-328 -69 329 0 
-328 69 310 0 
-329 -71 310 0 
-329 71 317 0 
-1 330 0 
1 338 0 
-330 -11 331 0 
-330 11 333 0 
-331 332 0 
-333 -15 334 0 
-333 15 338 0 
-334 -18 331 0 
-334 18 335 0 
-335 -32 336 0 
-335 32 340 0 
-336 -37 337 0 
-336 37 338 0 
-23 -24 0 
-337 -332 0 
-338 -332 339 0 
-338 -339 332 0 
-340 -40 338 0 
-340 40 341 0 
-341 -45 338 0 
-341 45 342 0 
-342 -49 338 0 
-342 49 343 0 
-343 -53 338 0 
-343 53 344 0 
-344 -56 338 0 
-344 56 345 0 
-345 -59 338 0 
-345 59 346 0 
-346 -62 338 0 
-346 62 347 0 
-347 -65 338 0 
-347 65 348 0 
-348 -67 338 0 
-348 67 349 0 
-349 -69 350 0 
-349 69 331 0 
-350 -71 331 0 
-350 71 338 0 
-1 351 0 
1 356 0 
-351 -11 352 0 
-351 11 354 0 
-352 -353 0 
-354 -15 355 0 
-354 15 356 0 
-25 -26 0 
-355 -18 356 0 
-355 18 358 0 
-356 -353 357 0 
-356 -357 353 0 
-358 -32 356 0 
-358 32 359 0 
-359 -40 356 0 
-359 40 360 0 
-360 -45 361 0 
-360 45 362 0 
-361 353 0 
-362 -49 356 0 
-362 49 363 0 
-363 -53 356 0 
-363 53 364 0 
-364 -56 365 0 
-364 56 366 0 
-365 -71 352 0 
-365 71 356 0 
-366 -59 356 0 
-366 59 367 0 
-367 -62 356 0 
-367 62 368 0 
-368 -65 356 0 
-368 65 369 0 
-369 -67 356 0 
-369 67 370 0 
-370 -69 356 0 
-370 69 352 0 
-1 371 0 
1 376 0 
-371 -11 372 0 
-371 11 374 0 
-372 -373 0 
-27 -28 0 
-374 -15 375 0 
-374 15 376 0 
-375 -18 376 0 
-375 18 378 0 
-376 -373 377 0 
-376 -377 373 0 
-378 -32 376 0 
-378 32 379 0 
-379 -40 376 0 
-379 40 380 0 
-380 -45 376 0 
-380 45 381 0 
-381 -49 382 0 
-381 49 384 0 
-382 -196 383 0 
-382 196 376 0 
-383 373 0 
-384 -53 372 0 
-384 53 385 0 
-385 -56 376 0 
-385 56 386 0 
-386 -59 376 0 
-386 59 387 0 
-387 -62 376 0 
-387 62 388 0 
-388 -65 382 0 
-388 65 389 0 
-389 -67 372 0 
-389 67 390 0 
-390 -69 376 0 
-390 69 372 0 
-29 -13 30 0 
-29 -30 13 0 
-31 -32 36 0 
-31 32 39 0 
-32 27 0 
-32 33 0 
-33 25 0 
-33 34 0 
-34 23 0 
-34 35 0 
-35 22 0 
-36 -37 12 0 
-36 37 29 0 
-37 38 0 
-39 -40 29 0 
-39 40 44 0 
-40 27 0 
-40 41 0 
-41 25 0 
-41 42 0 
-42 21 0 
-42 43 0 
-43 24 0 
-44 -45 29 0 
-44 45 48 0 
-45 27 0 
-45 46 0 
-46 25 0 
-46 47 0 
-47 35 0 
-47 43 0 
-48 -49 29 0 
-48 49 52 0 
-49 27 0 
-49 50 0 
-50 20 0 
-50 51 0 
-51 26 0 
-52 -53 29 0 
-52 53 55 0 
-53 27 0 
-53 54 0 
-54 34 0 
-54 51 0 
-55 -56 29 0 
-55 56 58 0 
-56 41 0 
-56 57 0 
-57 28 0 
-58 -59 29 0 
-58 59 61 0 
-59 27 0 
-59 60 0 
-60 42 0 
-60 51 0 
-61 -62 29 0 
-61 62 64 0 
-62 27 0 
-62 63 0 
-63 47 0 
-63 51 0 
-64 -65 29 0 
-64 65 66 0 
-65 19 0 
-65 57 0 
-66 -67 29 0 
-66 67 68 0 
-67 33 0 
-67 57 0 
-68 -69 70 0 
-68 69 73 0 
-69 46 0 
-69 57 0 
-70 -71 73 0 
-70 71 29 0 
-71 72 0 
-73 13 0 
-1 74 0 
1 112 0 
-74 -11 75 0 
-74 11 86 0 
-75 76 0 
-75 84 0 
-76 77 0 
-76 82 0 
-77 78 0 
-77 80 0 
-78 -79 0 
-80 -81 0 
-82 -83 0 
-84 -85 0 
86 -87 -112 0 
86 -15 -87 0 
86 15 -112 0 
87 -88 -99 0 
87 -99 -119 0 
87 88 -119 0 
88 -89 -97 0 
89 -90 -95 0 
90 -91 -93 0 
91 92 0 
93 94 0 
95 96 0 
97 98 0 
99 -100 -108 0 
99 -108 -112 0 
99 100 -112 0 
100 -101 -106 0 
101 -102 -104 0 
102 -103 0 
104 -105 0 
106 -107 0 
108 -109 -84 0 
109 -110 -82 0 
110 -78 -111 0 
111 -81 0 
112 -113 -118 0 
113 -114 -117 0 
114 -115 -116 0 
1 -2 0 
1 -6 0 
115 -79 -92 0 
115 79 92 0 
116 -81 -94 0 
116 81 94 0 
117 -83 -96 0 
117 83 96 0 
118 -85 -98 0 
118 85 98 0 
119 -120 -124 0 
119 -124 -129 0 
119 120 -129 0 
120 -121 -97 0 
121 -122 -95 0 
122 -91 -123 0 
123 -94 0 
124 -125 -126 0 
124 -126 -112 0 
124 125 -112 0 
2 3 0 
125 105 0 
126 -127 -84 0 
127 -77 -128 0 
128 -83 0 
129 -130 -133 0 
129 -133 -140 0 
129 130 -140 0 
130 -131 -97 0 
131 -90 -132 0 
132 -96 0 
133 -134 -136 0 
133 -136 -112 0 
133 134 -112 0 
134 -101 -135 0 
3 -4 -5 0 
3 4 5 0 
135 107 0 
136 -137 -84 0 
137 -138 -82 0 
138 -139 -111 0 
139 -79 0 
140 -141 -145 0 
140 -145 -149 0 
140 141 -149 0 
141 -142 -97 0 
142 -143 -95 0 
143 -144 -123 0 
144 -92 0 
145 -125 -146 0 
145 -146 -112 0 
145 125 -112 0 
146 -147 -84 0 
147 -148 -82 0 
148 -139 -80 0 
149 -150 -153 0 
149 -153 -112 0 
149 150 -112 0 
150 -151 -97 0 
151 -152 -95 0 
152 -144 -93 0 
153 -154 -75 0 
153 -75 -112 0 
153 154 -112 0 
154 -30 0 
155 -156 -167 0 
155 -11 -156 0 
155 11 -167 0 
156 -157 -165 0 
157 -158 -163 0 
158 -159 -161 0 
159 160 0 
161 162 0 
6 7 0 
163 164 0 
165 166 0 
167 -168 -179 0 
167 -15 -168 0 
167 15 -179 0 
168 -169 -173 0 
168 -18 -169 0 
168 18 -173 0 
169 -170 -165 0 
170 -171 -163 0 
171 -172 -161 0 
172 -160 0 
7 -8 -9 0 
7 8 9 0 
173 -174 -186 0 
173 -32 -174 0 
173 32 -186 0 
174 -175 -179 0 
174 -37 -175 0 
174 37 -179 0 
175 -176 -165 0 
176 -177 -163 0 
177 -159 -178 0 
178 -162 0 
179 -180 -185 0 
180 -181 -184 0 
181 -182 -183 0 
182 -160 -22 0 
182 160 22 0 
183 -162 -24 0 
183 162 24 0 
184 -164 -26 0 
184 164 26 0 
185 -166 -28 0 
185 166 28 0 
186 -187 -190 0 
186 -40 -187 0 
186 40 -190 0 
187 -188 -165 0 
188 -189 -163 0 
189 -172 -178 0 
190 -191 -194 0 
190 -45 -191 0 
190 45 -194 0 
191 -192 -165 0 
192 -158 -193 0 
193 -164 0 
194 -195 -200 0 
194 -49 -195 0 
194 49 -200 0 
195 -196 -198 0 
195 -198 -179 0 
195 196 -179 0 
196 -197 0 
198 -199 -165 0 
199 -171 -193 0 
200 -201 -203 0 
200 -53 -201 0 
200 53 -203 0 
201 -176 -202 0 
202 -166 0 
10 -11 -12 0 
10 -12 -14 0 
10 11 -14 0 
203 -204 -207 0 
203 -56 -204 0 
203 56 -207 0 
204 -205 -179 0 
204 -71 -205 0 
204 71 -179 0 
205 -206 -165 0 
206 -177 -193 0 
207 -208 -210 0 
207 -59 -208 0 
207 59 -210 0 
208 -209 -165 0 
209 -189 -193 0 
210 -211 -212 0 
210 -62 -211 0 
210 62 -212 0 
211 -157 -202 0 
212 -213 -215 0 
212 -65 -213 0 
212 65 -215 0 
11 -8 0 
213 -196 -214 0 
213 -214 -179 0 
213 196 -179 0 
214 -170 -202 0 
215 -216 -217 0 
215 -67 -216 0 
215 67 -217 0 
216 -188 -202 0 
217 -218 -179 0 
217 -69 -218 0 
217 69 -179 0 
218 -156 -179 0 
218 -71 -156 0 
218 71 -179 0 
219 -11 -220 0 
219 -220 -222 0 
219 11 -222 0 
220 221 0 
222 -223 -224 0 
222 -15 -223 0 
222 15 -224 0 
223 -88 -224 0 
223 -224 -225 0 
223 88 -225 0 
224 -221 -38 0 
224 221 38 0 
225 -120 -224 0 
225 -224 -226 0 
225 120 -226 0 
226 -130 -224 0 
226 -224 -227 0 
226 130 -227 0 
227 -141 -228 0 
227 -228 -229 0 
227 141 -229 0 
228 -221 0 
229 -150 -220 0 
229 -220 -224 0 
229 150 -224 0 
230 -11 -231 0 
230 -231 -233 0 
230 11 -233 0 
12 13 0 
231 232 0 
233 -234 -235 0 
233 -15 -234 0 
233 15 -235 0 
234 -235 -237 0 
234 -18 -235 0 
234 18 -237 0 
235 -232 -236 0 
235 232 236 0 
237 -235 -238 0 
237 -32 -235 0 
237 32 -238 0 
238 -235 -239 0 
238 -40 -235 0 
238 40 -239 0 
239 -235 -240 0 
239 -45 -235 0 
239 45 -240 0 
240 -235 -241 0 
240 -49 -235 0 
240 49 -241 0 
241 -235 -242 0 
241 -53 -235 0 
241 53 -242 0 
242 -235 -243 0 
242 -56 -235 0 
242 56 -243 0 
243 -235 -244 0 
243 -59 -235 0 
243 59 -244 0 
244 -235 -245 0 
244 -62 -235 0 
244 62 -245 0 
245 -235 -246 0 
245 -65 -235 0 
245 65 -246 0 
246 -247 -231 0 
246 -67 -247 0 
246 67 -231 0 
247 -232 0 
248 -11 -249 0 
248 -249 -251 0 
248 11 -251 0 
249 250 0 
251 -252 -253 0 
251 -15 -252 0 
251 15 -253 0 
252 -253 -255 0 
252 -18 -253 0 
252 18 -255 0 
253 -250 -254 0 
253 250 254 0 
255 -253 -256 0 
255 -32 -253 0 
255 32 -256 0 
256 -253 -257 0 
256 -40 -253 0 
256 40 -257 0 
257 -253 -258 0 
257 -45 -253 0 
257 45 -258 0 
258 -253 -259 0 
258 -49 -253 0 
258 49 -259 0 
14 -15 -17 0 
14 -17 -29 0 
14 15 -29 0 
259 -260 -261 0 
259 -53 -260 0 
259 53 -261 0 
260 -250 0 
261 -249 -262 0 
261 -56 -249 0 
261 56 -262 0 
262 -253 -263 0 
262 -59 -253 0 
262 59 -263 0 
263 -253 -264 0 
263 -62 -253 0 
263 62 -264 0 
264 -253 -265 0 
264 -65 -253 0 
264 65 -265 0 
265 -253 -266 0 
265 -67 -253 0 
265 67 -266 0 
266 -253 -249 0 
266 -69 -253 0 
266 69 -249 0 
15 -2 -16 0 
268 -11 -269 0 
268 -269 -271 0 
268 11 -271 0 
269 270 0 
271 -15 -272 0 
271 -272 -273 0 
271 15 -273 0 
272 -273 -275 0 
272 -18 -273 0 
272 18 -275 0 
16 -4 0 
273 -270 -274 0 
273 270 274 0 
275 -273 -276 0 
275 -32 -273 0 
275 32 -276 0 
276 -273 -277 0 
276 -40 -273 0 
276 40 -277 0 
277 -273 -278 0 
277 -45 -273 0 
277 45 -278 0 
278 -273 -279 0 
278 -49 -273 0 
278 49 -279 0 
279 -273 -280 0 
279 -53 -273 0 
279 53 -280 0 
280 -273 -281 0 
280 -56 -273 0 
280 56 -281 0 
281 -273 -282 0 
281 -59 -273 0 
281 59 -282 0 
282 -283 -284 0 
282 -62 -283 0 
282 62 -284 0 
17 -18 -29 0 
17 -29 -31 0 
17 18 -31 0 
283 -270 0 
284 -273 -285 0 
284 -65 -273 0 
284 65 -285 0 
285 -273 -286 0 
285 -67 -273 0 
285 67 -286 0 
286 -287 -269 0 
286 -69 -287 0 
286 69 -269 0 
287 -269 -273 0 
287 -71 -269 0 
287 71 -273 0 
288 -11 -289 0 
288 -289 -291 0 
288 11 -291 0 
289 290 0 
18 -19 -27 0 
291 -15 -292 0 
291 -292 -293 0 
291 15 -293 0 
292 -18 -293 0 
292 -293 -295 0 
292 18 -295 0 
293 -290 -294 0 
293 290 294 0 
295 -296 -298 0 
295 -32 -296 0 
295 32 -298 0 
296 -297 -293 0 
296 -37 -297 0 
296 37 -293 0 
297 -290 0 
298 -289 -299 0 
298 -40 -289 0 
298 40 -299 0 
299 -293 -300 0 
299 -45 -293 0 
299 45 -300 0 
300 -293 -301 0 
300 -49 -293 0 
300 49 -301 0 
19 -20 -25 0 
301 -293 -302 0 
301 -53 -293 0 
301 53 -302 0 
302 -303 -304 0 
302 -56 -303 0 
302 56 -304 0 
303 -297 -293 0 
303 -71 -297 0 
303 71 -293 0 
304 -289 -305 0 
304 -59 -289 0 
304 59 -305 0 
305 -293 -306 0 
305 -62 -293 0 
305 62 -306 0 
306 -293 -307 0 
306 -65 -293 0 
306 65 -307 0 
307 -293 -308 0 
307 -67 -293 0 
307 67 -308 0 
308 -293 -289 0 
308 -69 -293 0 
308 69 -289 0 
20 -21 -23 0 
309 -11 -310 0 
309 -310 -312 0 
309 11 -312 0 
310 311 0 
312 -15 -313 0 
312 -313 -317 0 
312 15 -317 0 
313 -18 -310 0 
313 -310 -314 0 
313 18 -314 0 
314 -315 -319 0 
314 -32 -315 0 
314 32 -319 0 
315 -316 -317 0 
315 -37 -316 0 
315 37 -317 0 
316 -311 0 
317 -311 -318 0 
317 311 318 0 
21 22 0 
319 -317 -320 0 
319 -40 -317 0 
319 40 -320 0 
320 -317 -321 0 
320 -45 -317 0 
320 45 -321 0 
321 -317 -322 0 
321 -49 -317 0 
321 49 -322 0 
322 -317 -323 0 
322 -53 -317 0 
322 53 -323 0 
323 -317 -324 0 
323 -56 -317 0 
323 56 -324 0 
324 -317 -325 0 
324 -59 -317 0 
324 59 -325 0 
325 -317 -326 0 
325 -62 -317 0 
325 62 -326 0 
326 -317 -327 0 
326 -65 -317 0 
326 65 -327 0 
327 -317 -328 0 
327 -67 -317 0 
327 67 -328 0 
328 -329 -310 0 
328 -69 -329 0 
328 69 -310 0 
329 -310 -317 0 
329 -71 -310 0 
329 71 -317 0 
330 -11 -331 0 
330 -331 -333 0 
330 11 -333 0 
331 -332 0 
333 -15 -334 0 
333 -334 -338 0 
333 15 -338 0 
334 -18 -331 0 
334 -331 -335 0 
334 18 -335 0 
335 -336 -340 0 
335 -32 -336 0 
335 32 -340 0 
336 -337 -338 0 
336 -37 -337 0 
336 37 -338 0 
23 24 0 
337 332 0 
338 -332 -339 0 
338 332 339 0 
340 -338 -341 0 
340 -40 -338 0 
340 40 -341 0 
341 -338 -342 0 
341 -45 -338 0 
341 45 -342 0 
342 -338 -343 0 
342 -49 -338 0 
342 49 -343 0 
343 -338 -344 0 
343 -53 -338 0 
343 53 -344 0 
344 -338 -345 0 
344 -56 -338 0 
344 56 -345 0 
345 -338 -346 0 
345 -59 -338 0 
345 59 -346 0 
346 -338 -347 0 
346 -62 -338 0 
346 62 -347 0 
347 -338 -348 0 
347 -65 -338 0 
347 65 -348 0 
348 -338 -349 0 
348 -67 -338 0 
348 67 -349 0 
349 -350 -331 0 
349 -69 -350 0 
349 69 -331 0 
350 -331 -338 0 
350 -71 -331 0 
350 71 -338 0 
351 -11 -352 0 
351 -352 -354 0 
351 11 -354 0 
352 353 0 
354 -15 -355 0 
354 -355 -356 0 
354 15 -356 0 
25 26 0 
355 -18 -356 0 
355 -356 -358 0 
355 18 -358 0 
356 -353 -357 0 
356 353 357 0 
358 -356 -359 0 
358 -32 -356 0 
358 32 -359 0 
359 -356 -360 0 
359 -40 -356 0 
359 40 -360 0 
360 -361 -362 0 
360 -45 -361 0 
360 45 -362 0 
361 -353 0 
362 -356 -363 0 
362 -49 -356 0 
362 49 -363 0 
363 -356 -364 0 
363 -53 -356 0 
363 53 -364 0 
364 -365 -366 0 
364 -56 -365 0 
364 56 -366 0 
365 -352 -356 0 
365 -71 -352 0 
365 71 -356 0 
366 -356 -367 0 
366 -59 -356 0 
366 59 -367 0 
367 -356 -368 0 
367 -62 -356 0 
367 62 -368 0 
368 -356 -369 0 
368 -65 -356 0 
368 65 -369 0 
369 -356 -370 0 
369 -67 -356 0 
369 67 -370 0 
370 -356 -352 0 
370 -69 -356 0 
370 69 -352 0 
371 -11 -372 0 
371 -372 -374 0 
371 11 -374 0 
372 373 0 
27 28 0 
374 -15 -375 0 
374 -375 -376 0 
374 15 -376 0 
375 -18 -376 0 
375 -376 -378 0 
375 18 -378 0 
376 -373 -377 0 
376 373 377 0 
378 -376 -379 0 
378 -32 -376 0 
378 32 -379 0 
379 -376 -380 0 
379 -40 -376 0 
379 40 -380 0 
380 -376 -381 0 
380 -45 -376 0 
380 45 -381 0 
381 -382 -384 0 
381 -49 -382 0 
381 49 -384 0 
382 -196 -383 0 
382 -383 -376 0 
382 196 -376 0 
383 -373 0 
384 -372 -385 0 
384 -53 -372 0 
384 53 -385 0 
385 -376 -386 0 
385 -56 -376 0 
385 56 -386 0 
386 -376 -387 0 
386 -59 -376 0 
386 59 -387 0 
387 -376 -388 0 
387 -62 -376 0 
387 62 -388 0 
388 -382 -389 0 
388 -65 -382 0 
388 65 -389 0 
389 -372 -390 0 
389 -67 -372 0 
389 67 -390 0 
390 -376 -372 0 
390 -69 -376 0 
390 69 -372 0 
29 -13 -30 0 
29 13 30 0 
31 -32 -36 0 
31 -36 -39 0 
31 32 -39 0 
32 -33 -27 0 
33 -34 -25 0 
34 -35 -23 0 
35 -22 0 
36 -12 -29 0 
36 -37 -12 0 
36 37 -29 0 
37 -38 0 
39 -29 -44 0 
39 -40 -29 0 
39 40 -44 0 
40 -41 -27 0 
41 -42 -25 0 
42 -21 -43 0 
43 -24 0 
44 -29 -48 0 
44 -45 -29 0 
44 45 -48 0 
45 -46 -27 0 
46 -47 -25 0 
47 -35 -43 0 
48 -29 -52 0 
48 -49 -29 0 
48 49 -52 0 
49 -50 -27 0 
50 -20 -51 0 
51 -26 0 
52 -29 -55 0 
52 -53 -29 0 
52 53 -55 0 
53 -54 -27 0 
54 -34 -51 0 
55 -29 -58 0 
55 -56 -29 0 
55 56 -58 0 
56 -41 -57 0 
57 -28 0 
58 -29 -61 0 
58 -59 -29 0 
58 59 -61 0 
59 -60 -27 0 
60 -42 -51 0 
61 -29 -64 0 
61 -62 -29 0 
61 62 -64 0 
62 -63 -27 0 
63 -47 -51 0 
64 -29 -66 0 
64 -65 -29 0 
64 65 -66 0 
65 -19 -57 0 
66 -29 -68 0 
66 -67 -29 0 
66 67 -68 0 
67 -33 -57 0 
68 -69 -70 0 
68 -70 -73 0 
68 69 -73 0 
69 -46 -57 0 
70 -71 -73 0 
70 -73 -29 0 
70 71 -29 0 
71 -72 0 
73 -13 0 
74 -11 -75 0 
74 -75 -86 0 
74 11 -86 0 
75 -76 -84 0 
76 -77 -82 0 
77 -78 -80 0 
78 79 0 
80 81 0 
82 83 0 
84 85 0 
